NAME : portcgen-27-8
COMMENT : portcgen N=27, seed=8
TYPE : TSP
DIMENSION : 27
EDGE_WEIGHT_TYPE : EUC_2D
NODE_COORD_SECTION
1 -182543 11091
2 124867 124203
3 7376 -303752
4 -43696 -61938
5 -338062 113572
6 -14361 29138
7 -40928 -32084
8 145342 -167413
9 127816 -225015
10 101971 74363
11 48692 25527
12 91783 -135428
13 -79289 1349
14 -67502 140362
15 -101247 378670
16 -168057 286074
17 -235798 197982
18 -46200 137337
19 48662 -288596
20 -78090 219533
21 62182 253018
22 -144599 -63526
23 98199 -45479
24 41591 -133432
25 -136822 446229
26 -69193 -126073
27 260505 68311
